generated by phonopy
   1.0
     3.2388953590074312    0.0000000000000000    0.0000000000000000
    -1.6194476795037156    2.8049656610999549    0.0000000000000000
     0.0000000000000000    0.0000000000000000    5.3790730000094715
Hf O
   1    2
Direct
  0.0000000000000000  0.0000000000000000  0.0000000000000000
  0.6666666666666667  0.3333333333333334  0.1792143142174849
  0.3333333333333334  0.6666666666666669  0.8207856857825153
