HfO2 monoclinic
   1.0
     6.4777907180148437  -11.2198626443998357    0.0000000000000000
     6.4777907180148437   11.2198626443998357    0.0000000000000000
     0.0000000000000000    0.0000000000000000   10.7581460000189448
Hf O
  32   64
Direct
  0.0000000000000000  0.0000000000000000  0.0000000000000000
  0.5000000000000000  0.0000000000000000  0.0000000000000000
  0.0000000000000000  0.5000000000000000  0.0000000000000000
  0.5000000000000000  0.5000000000000000  0.0000000000000000
  0.0000000000000000  0.0000000000000000  0.5000000000000000
  0.5000000000000000  0.0000000000000000  0.5000000000000000
  0.0000000000000000  0.5000000000000000  0.5000000000000000
  0.5000000000000000  0.5000000000000000  0.5000000000000000
  0.2500000000000000  0.0000000000000000  0.0000000000000000
  0.7500000000000000  0.0000000000000000  0.0000000000000000
  0.2500000000000000  0.5000000000000000  0.0000000000000000
  0.7500000000000000  0.5000000000000000  0.0000000000000000
  0.2500000000000000  0.0000000000000000  0.5000000000000000
  0.7500000000000000  0.0000000000000000  0.5000000000000000
  0.2500000000000000  0.5000000000000000  0.5000000000000000
  0.7500000000000000  0.5000000000000000  0.5000000000000000
  0.0000000000000000  0.2500000000000000  0.0000000000000000
  0.5000000000000000  0.2500000000000000  0.0000000000000000
  0.0000000000000000  0.7500000000000000  0.0000000000000000
  0.5000000000000000  0.7500000000000000  0.0000000000000000
  0.0000000000000000  0.2500000000000000  0.5000000000000000
  0.5000000000000000  0.2500000000000000  0.5000000000000000
  0.0000000000000000  0.7500000000000000  0.5000000000000000
  0.5000000000000000  0.7500000000000000  0.5000000000000000
  0.2500000000000000  0.2500000000000000  0.0000000000000000
  0.7500000000000000  0.2500000000000000  0.0000000000000000
  0.2500000000000000  0.7500000000000000  0.0000000000000000
  0.7500000000000000  0.7500000000000000  0.0000000000000000
  0.2500000000000000  0.2500000000000000  0.5000000000000000
  0.7500000000000000  0.2500000000000000  0.5000000000000000
  0.2500000000000000  0.7500000000000000  0.5000000000000000
  0.7500000000000000  0.7500000000000000  0.5000000000000000
  0.1666667499999974  0.0833334999999984  0.0896071571087424
  0.6666667499999974  0.0833334999999984  0.0896071571087424
  0.1666667499999974  0.5833334999999984  0.0896071571087424
  0.6666667499999974  0.5833334999999984  0.0896071571087424
  0.1666667499999974  0.0833334999999984  0.5896071571087425
  0.6666667499999974  0.0833334999999984  0.5896071571087425
  0.1666667499999974  0.5833334999999984  0.5896071571087425
  0.6666667499999974  0.5833334999999984  0.5896071571087425
  0.4166667499999974  0.0833334999999984  0.0896071571087424
  0.9166667499999974  0.0833334999999984  0.0896071571087424
  0.4166667499999974  0.5833334999999984  0.0896071571087424
  0.9166667499999974  0.5833334999999984  0.0896071571087424
  0.4166667499999974  0.0833334999999984  0.5896071571087425
  0.9166667499999974  0.0833334999999984  0.5896071571087425
  0.4166667499999974  0.5833334999999984  0.5896071571087425
  0.9166667499999974  0.5833334999999984  0.5896071571087425
  0.1666667499999974  0.3333335000000019  0.0896071571087424
  0.6666667499999974  0.3333335000000019  0.0896071571087424
  0.1666667499999974  0.8333335000000019  0.0896071571087424
  0.6666667499999974  0.8333335000000019  0.0896071571087424
  0.1666667499999974  0.3333335000000019  0.5896071571087425
  0.6666667499999974  0.3333335000000019  0.5896071571087425
  0.1666667499999974  0.8333335000000019  0.5896071571087425
  0.6666667499999974  0.8333335000000019  0.5896071571087425
  0.4166667499999974  0.3333335000000019  0.0896071571087424
  0.9166667499999974  0.3333335000000019  0.0896071571087424
  0.4166667499999974  0.8333335000000019  0.0896071571087424
  0.9166667499999974  0.8333335000000019  0.0896071571087424
  0.4166667499999974  0.3333335000000019  0.5896071571087425
  0.9166667499999974  0.3333335000000019  0.5896071571087425
  0.4166667499999974  0.8333335000000019  0.5896071571087425
  0.9166667499999974  0.8333335000000019  0.5896071571087425
  0.0833332500000026  0.1666665000000016  0.4103928428912612
  0.5833332500000026  0.1666665000000016  0.4103928428912612
  0.0833332500000026  0.6666665000000016  0.4103928428912612
  0.5833332500000026  0.6666665000000016  0.4103928428912612
  0.0833332500000026  0.1666665000000016  0.9103928428912612
  0.5833332500000026  0.1666665000000016  0.9103928428912612
  0.0833332500000026  0.6666665000000016  0.9103928428912612
  0.5833332500000026  0.6666665000000016  0.9103928428912612
  0.3333332500000026  0.1666665000000016  0.4103928428912612
  0.8333332500000026  0.1666665000000016  0.4103928428912612
  0.3333332500000026  0.6666665000000016  0.4103928428912612
  0.8333332500000026  0.6666665000000016  0.4103928428912612
  0.3333332500000026  0.1666665000000016  0.9103928428912612
  0.8333332500000026  0.1666665000000016  0.9103928428912612
  0.3333332500000026  0.6666665000000016  0.9103928428912612
  0.8333332500000026  0.6666665000000016  0.9103928428912612
  0.0833332500000026  0.4166664999999981  0.4103928428912612
  0.5833332500000026  0.4166664999999981  0.4103928428912612
  0.0833332500000026  0.9166664999999981  0.4103928428912612
  0.5833332500000026  0.9166664999999981  0.4103928428912612
  0.0833332500000026  0.4166664999999981  0.9103928428912612
  0.5833332500000026  0.4166664999999981  0.9103928428912612
  0.0833332500000026  0.9166664999999981  0.9103928428912612
  0.5833332500000026  0.9166664999999981  0.9103928428912612
  0.3333332500000026  0.4166664999999981  0.4103928428912612
  0.8333332500000026  0.4166664999999981  0.4103928428912612
  0.3333332500000026  0.9166664999999981  0.4103928428912612
  0.8333332500000026  0.9166664999999981  0.4103928428912612
  0.3333332500000026  0.4166664999999981  0.9103928428912612
  0.8333332500000026  0.4166664999999981  0.9103928428912612
  0.3333332500000026  0.9166664999999981  0.9103928428912612
  0.8333332500000026  0.9166664999999981  0.9103928428912612
