W_0.556 Cr_0.444    Only W is being flipped!    randomized sample #861359 || OLD: W_0.593 Cr_0.407    Only W is being flipped!    randomized sample #586673 || OLD: W_0.630 Cr_0.370    Only W is being flipped!    randomized sample #26720 || OLD: W_0.667 Cr_0.333    Only W is being flipped!    randomized sample #927097 || OLD: W_0.704 Cr_0.296    Only W is being flipped!    randomized sample #966494 || OLD: W_0.722 Cr_0.278    Only W is being flipped!    randomized sample #553944 || OLD: W_0.741 Cr_0.259    Only W is being flipped!    randomized sample #922123 || OLD: W_0.778 Cr_0.222    Only W is being flipped!    randomized sample #797560 || OLD: W_0.815 Cr_0.185    Only W is being flipped!    randomized sample #683837 || OLD: W_0.852 Cr_0.148    Only W is being flipped!    randomized sample #122060 || OLD: W_0.889 Cr_0.111    Only W is being flipped!    randomized sample #788736 || OLD: W_0.926 Cr_0.074    Only W is being flipped!    randomized sample #865159 || OLD: W_1.000    Only W is being flipped!    randomized sample #37575 || OLD: bccTungsten
1.0
        9.0000000000         0.0000000000         0.0000000000
        0.0000000000         9.0000000000         0.0000000000
        0.0000000000         0.0000000000         9.0000000000
   W   Cr   
   30   24   
Direct
     0.000000000         0.000000000         0.333333333
     0.000000000         0.000000000         0.666666667
     0.000000000         0.333333333         0.333333333
     0.000000000         0.666666667         0.000000000
     0.000000000         0.666666667         0.666666667
     0.333333333         0.000000000         0.000000000
     0.333333333         0.333333333         0.333333333
     0.333333333         0.333333333         0.666666667
     0.333333333         0.666666667         0.000000000
     0.333333333         0.666666667         0.333333333
     0.666666667         0.000000000         0.000000000
     0.666666667         0.000000000         0.333333333
     0.666666667         0.333333333         0.000000000
     0.666666667         0.333333333         0.666666667
     0.666666667         0.666666667         0.666666667
     0.166666667         0.166666667         0.166666667
     0.166666667         0.500000000         0.500000000
     0.166666667         0.500000000         0.833333333
     0.166666667         0.833333333         0.166666667
     0.166666667         0.833333333         0.500000000
     0.500000000         0.166666667         0.166666667
     0.500000000         0.166666667         0.500000000
     0.500000000         0.500000000         0.166666667
     0.500000000         0.500000000         0.833333333
     0.500000000         0.833333333         0.833333333
     0.833333333         0.166666667         0.500000000
     0.833333333         0.166666667         0.833333333
     0.833333333         0.500000000         0.500000000
     0.833333333         0.833333333         0.166666667
     0.833333333         0.833333333         0.833333333
     0.666666667         0.666666667         0.333333333
     0.833333333         0.500000000         0.166666667
     0.333333333         0.000000000         0.666666667
     0.500000000         0.833333333         0.500000000
     0.000000000         0.333333333         0.000000000
     0.166666667         0.166666667         0.833333333
     0.166666667         0.833333333         0.833333333
     0.500000000         0.500000000         0.500000000
     0.833333333         0.166666667         0.166666667
     0.666666667         0.666666667         0.000000000
     0.000000000         0.333333333         0.666666667
     0.333333333         0.000000000         0.333333333
     0.166666667         0.166666667         0.500000000
     0.833333333         0.500000000         0.833333333
     0.666666667         0.333333333         0.333333333
     0.500000000         0.833333333         0.166666667
     0.000000000         0.000000000         0.000000000
     0.333333333         0.666666667         0.666666667
     0.000000000         0.666666667         0.333333333
     0.666666667         0.000000000         0.666666667
     0.166666667         0.500000000         0.166666667
     0.500000000         0.166666667         0.833333333
     0.333333333         0.333333333         0.000000000
     0.833333333         0.833333333         0.500000000
